book/ch03/dedication.sol
# Solution for model linear program
# Objective value = 2305.69164800379
x1 0
x2 1.1214953271028037e+01
x3 0
x4 6.63384512683578
x5 0
x6 0
x7 0
x8 6.0086836211723167e+00
x9 0
x10 0
s1 6.6377212627589472e+01
s2 3.2754425255178830e+01
s3 0
s4 1.8307743658210939e+01
s5 0
s6 0
